(declare-const c Real)
(assert (< 0 c))
(declare-const b Real)
(assert (< 0 b))
(declare-const a Real)
(assert (< 0 a))
(assert (not (<= (+ (+ (* (* (/ 1 (+ 1 (^ c 2))) (sqrt (+ (^ 1 2) (^ 1 2)))) (sqrt (+ (^ 1 2) (^ (^ b 2) 2)))) (/ (+ 1 (^ c 2)) (+ 1 (^ a 2)))) (/ (+ 1 (^ a 2)) (+ 1 (^ b 2)))) (+ (+ (/ (^ a 2) (^ b 2)) (/ (^ b 2) (^ c 2))) (/ (^ c 2) (^ a 2))))))
(check-sat)
(get-model)